c colouring generated by benchmark framework
p edge 450 9757
v 1 9
v 2 0
v 3 6
v 4 2
v 5 1
v 6 3
v 7 0
v 8 6
v 9 1
v 10 8
v 11 3
v 12 0
v 13 6
v 14 7
v 15 2
v 16 1
v 17 0
v 18 6
v 19 1
v 20 4
v 21 2
v 22 0
v 23 6
v 24 5
v 25 4
v 26 3
v 27 0
v 28 7
v 29 5
v 30 1
v 31 3
v 32 0
v 33 7
v 34 8
v 35 8
v 36 1
v 37 0
v 38 7
v 39 5
v 40 2
v 41 9
v 42 1
v 43 8
v 44 5
v 45 2
v 46 9
v 47 0
v 48 7
v 49 5
v 50 5
v 51 0
v 52 0
v 53 7
v 54 6
v 55 1
v 56 3
v 57 0
v 58 6
v 59 5
v 60 3
v 61 1
v 62 9
v 63 2
v 64 5
v 65 3
v 66 3
v 67 9
v 68 7
v 69 7
v 70 3
v 71 4
v 72 9
v 73 7
v 74 2
v 75 5
v 76 3
v 77 3
v 78 7
v 79 6
v 80 4
v 81 3
v 82 0
v 83 5
v 84 5
v 85 4
v 86 9
v 87 9
v 88 5
v 89 6
v 90 2
v 91 3
v 92 0
v 93 8
v 94 5
v 95 1
v 96 4
v 97 0
v 98 5
v 99 6
v 100 1
v 101 3
v 102 0
v 103 7
v 104 4
v 105 4
v 106 4
v 107 0
v 108 6
v 109 5
v 110 1
v 111 2
v 112 0
v 113 6
v 114 5
v 115 8
v 116 3
v 117 0
v 118 6
v 119 5
v 120 2
v 121 3
v 122 0
v 123 7
v 124 6
v 125 8
v 126 9
v 127 0
v 128 7
v 129 2
v 130 4
v 131 9
v 132 0
v 133 6
v 134 5
v 135 2
v 136 4
v 137 0
v 138 7
v 139 5
v 140 4
v 141 3
v 142 0
v 143 7
v 144 6
v 145 2
v 146 3
v 147 0
v 148 7
v 149 5
v 150 2
v 151 1
v 152 9
v 153 7
v 154 8
v 155 2
v 156 3
v 157 9
v 158 6
v 159 8
v 160 3
v 161 1
v 162 9
v 163 6
v 164 5
v 165 3
v 166 9
v 167 3
v 168 7
v 169 6
v 170 4
v 171 3
v 172 0
v 173 6
v 174 5
v 175 3
v 176 2
v 177 0
v 178 5
v 179 6
v 180 2
v 181 9
v 182 0
v 183 7
v 184 7
v 185 4
v 186 4
v 187 0
v 188 7
v 189 6
v 190 4
v 191 3
v 192 0
v 193 6
v 194 2
v 195 2
v 196 9
v 197 2
v 198 6
v 199 8
v 200 4
v 201 9
v 202 0
v 203 5
v 204 5
v 205 4
v 206 3
v 207 0
v 208 5
v 209 8
v 210 8
v 211 3
v 212 0
v 213 7
v 214 5
v 215 8
v 216 9
v 217 0
v 218 7
v 219 5
v 220 1
v 221 3
v 222 0
v 223 6
v 224 5
v 225 2
v 226 9
v 227 0
v 228 6
v 229 5
v 230 4
v 231 3
v 232 1
v 233 6
v 234 6
v 235 2
v 236 3
v 237 1
v 238 7
v 239 8
v 240 2
v 241 9
v 242 9
v 243 6
v 244 8
v 245 4
v 246 4
v 247 0
v 248 7
v 249 7
v 250 1
v 251 4
v 252 9
v 253 6
v 254 5
v 255 2
v 256 3
v 257 3
v 258 7
v 259 6
v 260 1
v 261 3
v 262 0
v 263 7
v 264 5
v 265 2
v 266 2
v 267 9
v 268 8
v 269 6
v 270 3
v 271 3
v 272 0
v 273 6
v 274 8
v 275 1
v 276 9
v 277 0
v 278 7
v 279 5
v 280 8
v 281 9
v 282 0
v 283 6
v 284 7
v 285 4
v 286 4
v 287 0
v 288 7
v 289 5
v 290 3
v 291 2
v 292 0
v 293 7
v 294 4
v 295 2
v 296 3
v 297 9
v 298 7
v 299 8
v 300 3
v 301 3
v 302 0
v 303 7
v 304 2
v 305 2
v 306 9
v 307 0
v 308 8
v 309 5
v 310 2
v 311 3
v 312 1
v 313 8
v 314 5
v 315 4
v 316 4
v 317 0
v 318 8
v 319 5
v 320 4
v 321 3
v 322 0
v 323 8
v 324 6
v 325 2
v 326 9
v 327 1
v 328 6
v 329 5
v 330 1
v 331 1
v 332 9
v 333 6
v 334 5
v 335 9
v 336 3
v 337 0
v 338 6
v 339 7
v 340 5
v 341 4
v 342 9
v 343 6
v 344 5
v 345 4
v 346 0
v 347 3
v 348 4
v 349 6
v 350 2
v 351 3
v 352 0
v 353 7
v 354 2
v 355 2
v 356 2
v 357 0
v 358 8
v 359 6
v 360 4
v 361 3
v 362 0
v 363 1
v 364 7
v 365 4
v 366 3
v 367 0
v 368 6
v 369 6
v 370 8
v 371 3
v 372 0
v 373 7
v 374 7
v 375 1
v 376 1
v 377 0
v 378 8
v 379 8
v 380 8
v 381 9
v 382 0
v 383 6
v 384 8
v 385 3
v 386 9
v 387 0
v 388 7
v 389 8
v 390 1
v 391 9
v 392 0
v 393 7
v 394 6
v 395 4
v 396 9
v 397 0
v 398 6
v 399 5
v 400 1
v 401 3
v 402 1
v 403 7
v 404 5
v 405 3
v 406 9
v 407 0
v 408 7
v 409 2
v 410 4
v 411 3
v 412 0
v 413 7
v 414 2
v 415 2
v 416 3
v 417 0
v 418 6
v 419 8
v 420 8
v 421 9
v 422 0
v 423 6
v 424 8
v 425 4
v 426 3
v 427 0
v 428 8
v 429 7
v 430 4
v 431 9
v 432 9
v 433 7
v 434 5
v 435 4
v 436 3
v 437 3
v 438 7
v 439 6
v 440 2
v 441 9
v 442 0
v 443 6
v 444 5
v 445 2
v 446 9
v 447 0
v 448 6
v 449 6
v 450 1
